BAYES
76
2 2 2 2 2 2 2 2 2 2 2 2 2 2 2 2 2 2 2 2 2 2 2 2 2 2 2 2 2 2 2 2 2 2 2 2 2 2 2 2 2 2 2 2 2 2 2 2 2 2 2 2 2 2 2 2 2 2 2 2 2 2 2 2 2 2 2 2 2 2 2 2 2 2 2 2
76
3 9 2 0
2 63 1
1 2
2 57 3
1 4
4 40 38 54 5
1 6
5 4 60 48 0 7
6 37 33 55 59 0 8
1 9
4 39 1 54 10
1 11
1 12
1 13
4 68 13 0 14
1 15
1 16
1 17
4 14 63 0 18
5 11 12 18 51 19
4 31 25 28 20
3 3 20 21
1 22
2 1 23
3 3 5 24
5 4 54 51 0 25
4 4 60 48 26
4 37 33 59 27
1 28
4 15 22 54 29
4 17 71 54 30
5 33 54 51 0 31
4 61 33 10 32
1 33
8 7 8 6 26 27 50 28 34
3 3 57 35
4 15 22 54 36
1 37
1 38
2 63 39
1 40
1 41
2 49 42
4 32 10 28 43
4 24 57 5 44
4 36 57 29 45
4 30 72 74 46
4 21 57 20 47
1 48
8 73 16 69 54 34 58 56 49
3 62 19 50
1 51
2 50 52
3 37 33 53
1 54
1 55
1 56
1 57
1 58
1 59
1 60
1 61
1 62
1 63
2 54 64
2 56 65
2 58 66
2 73 67
1 68
1 69
3 33 4 70
1 71
4 41 17 54 72
1 73
1 74
3 3 57 75

8
0.9999 0.0 0.0 0.5 0.0001 1.0 1.0 0.5
4
1.0 0.99000001 0.0 0.00999999
2
0.995 0.005
4
0.98 1.0 0.02 0.0
2
0.99 0.01
16
0.99 0.1 0.00999999 0.5 0.3 0.5 0.5 0.5 0.01 0.9 0.99000001 0.5 0.7 0.5 0.5 0.5
2
0.15 0.85
32
1.0 0.1 0.0 0.5 0.0 0.5 0.5 0.5 0.1 0.5 0.5 0.5 0.5 0.5 0.5 0.5 0.0 0.9 1.0 0.5 1.0 0.5 0.5 0.5 0.9 0.5 0.5 0.5 0.5 0.5 0.5 0.5
64
0.99 0.0 0.1 0.5 0.0 0.5 0.5 0.5 0.0 0.5 0.5 0.5 0.5 0.5 0.5 0.5 0.2 0.5 0.5 0.5 0.5 0.5 0.5 0.5 0.5 0.5 0.5 0.5 0.5 0.5 0.5 0.5 0.01 1.0 0.9 0.5 1.0 0.5 0.5 0.5 1.0 0.5 0.5 0.5 0.5 0.5 0.5 0.5 0.8 0.5 0.5 0.5 0.5 0.5 0.5 0.5 0.5 0.5 0.5 0.5 0.5 0.5 0.5 0.5
2
0.995 0.005
16
0.99900001 0.00099999 0.00099999 0.5 0.25 0.5 0.5 0.5 0.00099999 0.99900001 0.99900001 0.5 0.75 0.5 0.5 0.5
2
0.99 0.01
2
0.99 0.01
2
0.97 0.03
16
0.99 0.05 0.0 0.5 0.1 0.5 0.5 0.5 0.01 0.95 1.0 0.5 0.9 0.5 0.5 0.5
2
0.99 0.01
2
0.85 0.15
2
0.98 0.02
16
1.0 0.0 1.0 1.0 0.0 0.0 0.0 0.0 0.0 1.0 0.0 0.0 1.0 1.0 1.0 1.0
32
0.99 0.2 0.9 0.5 0.1 0.5 0.5 0.5 0.1 0.5 0.5 0.5 0.5 0.5 0.5 0.5 0.01 0.8 0.1 0.5 0.9 0.5 0.5 0.5 0.9 0.5 0.5 0.5 0.5 0.5 0.5 0.5
16
1.0 1.0 0.0 0.0 1.0 0.0 1.0 0.0 0.0 0.0 1.0 1.0 0.0 1.0 0.0 1.0
8
1.0 0.1 0.0 0.5 0.0 0.9 1.0 0.5
2
0.95 0.05
4
0.99 0.1 0.01 0.9
8
1.0 0.3 0.0 0.5 0.0 0.7 1.0 0.5
32
1.0 0.1 0.2 0.5 0.4 0.5 0.5 0.5 0.2 0.5 0.5 0.5 0.5 0.5 0.5 0.5 0.0 0.9 0.8 0.5 0.6 0.5 0.5 0.5 0.8 0.5 0.5 0.5 0.5 0.5 0.5 0.5
16
0.999 0.01 0.0 0.5 0.0 0.5 0.5 0.5 0.001 0.99 1.0 0.5 1.0 0.5 0.5 0.5
16
0.99 0.0 0.1 0.5 0.0 0.5 0.5 0.5 0.01 1.0 0.9 0.5 1.0 0.5 0.5 0.5
2
0.8 0.2
16
0.999 0.0 0.1 0.5 0.25 0.5 0.5 0.5 0.001 1.0 0.9 0.5 0.75 0.5 0.5 0.5
16
0.99000001 0.1 0.1 0.5 0.5 0.5 0.5 0.5 0.00999999 0.9 0.9 0.5 0.5 0.5 0.5 0.5
32
1.0 0.4 0.2 0.5 0.4 0.5 0.5 0.5 0.3 0.5 0.5 0.5 0.5 0.5 0.5 0.5 0.0 0.6 0.8 0.5 0.6 0.5 0.5 0.5 0.7 0.5 0.5 0.5 0.5 0.5 0.5 0.5
16
0.99900001 0.25 0.25 0.5 0.0 0.5 0.5 0.5 0.00099999 0.75 0.75 0.5 1.0 0.5 0.5 0.5
2
0.98 0.02
256
1.0 0.0 1.0 0.0 1.0 1.0 1.0 1.0 1.0 0.0 1.0 0.0 0.0 0.0 0.0 0.0 1.0 0.0 1.0 0.0 1.0 1.0 1.0 1.0 1.0 0.0 1.0 0.0 0.0 0.0 0.0 0.0 1.0 0.0 1.0 0.0 0.0 0.0 0.0 0.0 1.0 0.0 1.0 0.0 0.0 0.0 0.0 0.0 1.0 0.0 1.0 0.0 0.0 0.0 0.0 0.0 1.0 0.0 1.0 0.0 0.0 0.0 0.0 0.0 1.0 1.0 0.0 0.0 1.0 1.0 1.0 1.0 1.0 1.0 0.0 0.0 1.0 1.0 1.0 1.0 1.0 1.0 0.0 0.0 0.0 0.0 0.0 0.0 1.0 1.0 0.0 0.0 0.0 0.0 0.0 0.0 1.0 1.0 0.0 0.0 0.0 0.0 0.0 0.0 1.0 1.0 0.0 0.0 0.0 0.0 0.0 0.0 1.0 1.0 0.0 0.0 0.0 0.0 0.0 0.0 1.0 1.0 0.0 0.0 0.0 0.0 0.0 0.0 0.0 1.0 0.0 1.0 0.0 0.0 0.0 0.0 0.0 1.0 0.0 1.0 1.0 1.0 1.0 1.0 0.0 1.0 0.0 1.0 0.0 0.0 0.0 0.0 0.0 1.0 0.0 1.0 1.0 1.0 1.0 1.0 0.0 1.0 0.0 1.0 1.0 1.0 1.0 1.0 0.0 1.0 0.0 1.0 1.0 1.0 1.0 1.0 0.0 1.0 0.0 1.0 1.0 1.0 1.0 1.0 0.0 1.0 0.0 1.0 1.0 1.0 1.0 1.0 0.0 0.0 1.0 1.0 0.0 0.0 0.0 0.0 0.0 0.0 1.0 1.0 0.0 0.0 0.0 0.0 0.0 0.0 1.0 1.0 1.0 1.0 1.0 1.0 0.0 0.0 1.0 1.0 1.0 1.0 1.0 1.0 0.0 0.0 1.0 1.0 1.0 1.0 1.0 1.0 0.0 0.0 1.0 1.0 1.0 1.0 1.0 1.0 0.0 0.0 1.0 1.0 1.0 1.0 1.0 1.0 0.0 0.0 1.0 1.0 1.0 1.0 1.0 1.0
8
1.0 0.05 1.0 1.0 0.0 0.95 0.0 0.0
16
0.999 1.0 0.1 0.5 0.25 0.5 0.5 0.5 0.001 0.0 0.9 0.5 0.75 0.5 0.5 0.5
2
0.7 0.3
2
0.95 0.05
4
0.99000001 1.0 0.00999999 0.0
2
0.98 0.02
2
0.9 0.1
4
1.0 0.0 0.0 1.0
16
1.0 1.0 0.0 0.0 1.0 0.0 1.0 0.0 0.0 0.0 1.0 1.0 0.0 1.0 0.0 1.0
16
0.0 1.0 0.0 0.0 0.0 1.0 1.0 1.0 1.0 0.0 1.0 1.0 1.0 0.0 0.0 0.0
16
0.0 1.0 0.0 0.0 0.0 1.0 1.0 1.0 1.0 0.0 1.0 1.0 1.0 0.0 0.0 0.0
16
0.0 0.0 1.0 1.0 0.0 1.0 0.0 1.0 1.0 1.0 0.0 0.0 1.0 0.0 1.0 0.0
16
1.0 0.0 1.0 1.0 1.0 0.0 0.0 0.0 0.0 1.0 0.0 0.0 0.0 1.0 1.0 1.0
2
0.98 0.02
256
0.99 0.01 0.02 0.5 0.0 0.5 0.5 0.5 0.1 0.5 0.5 0.5 0.5 0.5 0.5 0.5 0.0 0.5 0.5 0.5 0.5 0.5 0.5 0.5 0.5 0.5 0.5 0.5 0.5 0.5 0.5 0.5 0.0 0.5 0.5 0.5 0.5 0.5 0.5 0.5 0.5 0.5 0.5 0.5 0.5 0.5 0.5 0.5 0.5 0.5 0.5 0.5 0.5 0.5 0.5 0.5 0.5 0.5 0.5 0.5 0.5 0.5 0.5 0.5 0.0 0.5 0.5 0.5 0.5 0.5 0.5 0.5 0.5 0.5 0.5 0.5 0.5 0.5 0.5 0.5 0.5 0.5 0.5 0.5 0.5 0.5 0.5 0.5 0.5 0.5 0.5 0.5 0.5 0.5 0.5 0.5 0.5 0.5 0.5 0.5 0.5 0.5 0.5 0.5 0.5 0.5 0.5 0.5 0.5 0.5 0.5 0.5 0.5 0.5 0.5 0.5 0.5 0.5 0.5 0.5 0.5 0.5 0.5 0.5 0.5 0.5 0.5 0.5 0.01 0.99 0.98 0.5 1.0 0.5 0.5 0.5 0.9 0.5 0.5 0.5 0.5 0.5 0.5 0.5 1.0 0.5 0.5 0.5 0.5 0.5 0.5 0.5 0.5 0.5 0.5 0.5 0.5 0.5 0.5 0.5 1.0 0.5 0.5 0.5 0.5 0.5 0.5 0.5 0.5 0.5 0.5 0.5 0.5 0.5 0.5 0.5 0.5 0.5 0.5 0.5 0.5 0.5 0.5 0.5 0.5 0.5 0.5 0.5 0.5 0.5 0.5 0.5 1.0 0.5 0.5 0.5 0.5 0.5 0.5 0.5 0.5 0.5 0.5 0.5 0.5 0.5 0.5 0.5 0.5 0.5 0.5 0.5 0.5 0.5 0.5 0.5 0.5 0.5 0.5 0.5 0.5 0.5 0.5 0.5 0.5 0.5 0.5 0.5 0.5 0.5 0.5 0.5 0.5 0.5 0.5 0.5 0.5 0.5 0.5 0.5 0.5 0.5 0.5 0.5 0.5 0.5 0.5 0.5 0.5 0.5 0.5 0.5 0.5 0.5 0.5 0.5
8
0.99 0.0 0.0 0.5 0.01 1.0 1.0 0.5
2
0.9 0.1
4
0.8 0.2 0.2 0.8
8
0.9999 0.7 0.25 0.5 0.0001 0.3 0.75 0.5
2
0.95 0.05
2
0.8 0.2
2
0.9 0.1
2
0.4 0.6
2
0.98 0.02
2
0.97 0.03
2
0.99 0.01
2
0.99 0.01
2
0.99 0.01
2
0.95 0.05
4
0.99900001 0.2 0.00099999 0.8
4
0.99000001 0.00999999 0.00999999 0.99000001
4
0.99900001 0.00099999 0.00099999 0.99900001
4
0.99900001 0.00099999 0.00099999 0.99900001
2
0.9999 0.0001
2
0.94 0.06
8
1.0 0.5 0.5 0.5 0.0 0.5 0.5 0.5
2
0.95 0.05
16
0.99000001 0.0 0.1 0.5 0.5 0.5 0.5 0.5 0.00999999 1.0 0.9 0.5 0.5 0.5 0.5 0.5
2
0.995 0.005
2
0.9 0.1
8
0.99900001 0.00099999 1.0 1.0 0.00099999 0.99900001 0.0 0.0